2023/11/29
gurobi is now 11.0.0
previous version was 10.0.3
solving instance knapsack 50 7 square
Couenne 0.5.8 -- an Open-Source solver for Mixed Integer Nonlinear Optimization
Mailing list: couenne@list.coin-or.org
Instructions: http://www.coin-or.org/Couenne
couenne: 
ANALYSIS TEST: Couenne: new cutoff value -7.8533203466e+01 (0.010166 seconds)
NLP0012I 
              Num      Status      Obj             It       time                 Location
NLP0014I             1         OPT -1347.3994     1611 4.144798
Couenne: new cutoff value -1.3407633272e+03 (4.17638 seconds)
NLP0014I             2         OPT -1347.3238       35 0.078321
Couenne: new cutoff value -1.3473238155e+03 (4.25554 seconds)
Loaded instance "/tmp/jl_s62gs9/model.nl"
Constraints:          151
Variables:            150 (50 integer)
Auxiliaries:           52 (0 integer)

Coin0506I Presolve 301 (-51) rows, 150 (-52) columns and 699 (-102) elements
Clp0006I 0  Obj -1610.5797 Primal inf 28069.295 (50)
Clp0006I 81  Obj -1451.7457 Primal inf 6990.5647 (20)
Clp0006I 117  Obj -1378.3382
Clp0000I Optimal - objective value -1378.3382
Clp0032I Optimal objective -1378.338217 - 117 iterations time 0.002, Presolve 0.00
Clp0000I Optimal - objective value -1378.3382
NLP Heuristic: NLP0014I             3         OPT -1370.6782       15 0.027912
no solution.
Clp0000I Optimal - objective value -1378.3382
Optimality Based BT: 7 improved bounds
Probing: Couenne: new cutoff value -1.3706782289e+03 (4.35124 seconds)
0 improved bounds
NLP Heuristic: time limit reached.
Cbc0013I At root node, 0 cuts changed objective from -1378.3382 to -1378.3382 in 1 passes
Cbc0014I Cut generator 0 (Couenne convexifier cuts) - 0 row cuts average 0.0 elements, 28 column cuts (28 active)
Cbc0010I After 0 nodes, 1 on tree, 1e+50 best solution, best possible -1.7976931e+308 (0.15 seconds)
Optimality Based BT: 10 improved bounds
Optimality Based BT: 13 improved bounds
Optimality Based BT: 23 improved bounds
Optimality Based BT: Couenne: new cutoff value -1.3752017931e+03 (4.97487 seconds)
24 improved bounds
Optimality Based BT: 31 improved bounds
Couenne: new cutoff value -1.3774045763e+03 (5.23177 seconds)
Optimality Based BT: 30 improved bounds
Optimality Based BT: 32 improved bounds
Cbc0004I Integer solution of -1377.4046 found after 328 iterations and 49 nodes (1.80 seconds)
Optimality Based BT: 6 improved bounds
Cbc0001I Search completed - best objective -1377.404576273085, took 339 iterations and 51 nodes (2.08 seconds)
Cbc0035I Maximum depth 24, 0 variables fixed on reduced cost

 	"Finished"

Linearization cuts added at root node:        352
Linearization cuts added in total:            352  (separation time: 0.000775s)
Total solve time:                         2.08244s (2.08244s in branch-and-bound)
Lower bound:                              -1377.4
Upper bound:                              -1377.4  (gap: 0.00%)
Branch-and-bound nodes:                        51
Stats: /tmp/jl_s62gs9/model.nl  150 [var]   50 [int]  151 [con]   52 [aux]    352 [root]      352 [tot] 0.000775 [sep]  2.08244 [time]  2.08273 [bb]        -1.377405e+03 [lower]        -1.377405e+03 [upper]      51 [nodes]
Performance of                           FBBT:	   0.007459s,       61 runs. fix:          0 shrnk:    57.6364 ubd:          0 2ubd:          1 infeas:          0
Performance of                           OBBT:	   0.655388s,        9 runs. fix:        1.2 shrnk:     41.554 ubd:          0 2ubd:          1 infeas:          0
primal_bound = -1377.4045762730927, dual_bound = 0.0, gap = 100.0, time = 9.88
